Clp0006I 0  Obj 0 Primal inf 1999.9998 (2000) Dual inf 27500212 (1000000)
Clp0006I 200  Obj -22085382 Primal inf 1608892 (2000)
Clp0006I 400  Obj -16600597 Primal inf 1214108 (2000)
Clp0006I 600  Obj -11112719 Primal inf 820168 (2000)
Clp0006I 800  Obj -5614985 Primal inf 430836 (2000)
Clp0006I 1000  Obj -126697 Primal inf 66275 (1998)
Clp0006I 1175  Obj -70501 Primal inf 63828 (1999)
Clp0006I 1280  Obj -70501 Primal inf 68853 (1998)
Clp0006I 1417  Obj -70501 Primal inf 162570 (1995)
Clp0006I 1539  Obj -70501 Primal inf 364826 (1998)
Clp0006I 1657  Obj -70501 Primal inf 226328 (1999)
Clp0006I 1796  Obj -70501 Primal inf 404336 (1998)
Clp0006I 1937  Obj -70501 Primal inf 247365 (1998)
Clp0006I 2080  Obj -70501 Primal inf 256593 (1995)
Clp0006I 2229  Obj -70501 Primal inf 275882 (1994)
Clp0006I 2381  Obj -70501 Primal inf 258773 (1994)
Clp0006I 2526  Obj -70501 Primal inf 311785 (1995)
Clp0006I 2674  Obj -70501 Primal inf 300180 (1995)
Clp0006I 2823  Obj -70501 Primal inf 194609 (1993)
Clp0006I 3000  Obj -70501 Primal inf 292001 (1991)
Clp0006I 3157  Obj -70501 Primal inf 233152 (1990)
Clp0006I 3308  Obj -70501 Primal inf 252000 (1989)
Clp0006I 3471  Obj -70501 Primal inf 249835 (1988)
Clp0006I 3627  Obj -70501 Primal inf 177702 (1986)
Clp0006I 3792  Obj -70501 Primal inf 263654 (1989)
Clp0006I 3958  Obj -70501 Primal inf 246850 (1987)
Clp0006I 4131  Obj -70501 Primal inf 316753 (1988)
Clp0006I 4273  Obj -70501 Primal inf 289909 (1990)
Clp0006I 4450  Obj -70501 Primal inf 272768 (1989)
Clp0006I 4604  Obj -70501 Primal inf 267152 (1988)
Clp0006I 4772  Obj -70501 Primal inf 245903 (1988)
Clp0006I 4931  Obj -70501 Primal inf 288242 (1988)
Clp0006I 5085  Obj -70501 Primal inf 207027 (1986)
Clp0006I 5248  Obj -70501 Primal inf 273082 (1985)
Clp0006I 5421  Obj -70501 Primal inf 338383 (1986)
Clp0006I 5572  Obj -70501 Primal inf 268775 (1988)
Clp0006I 5733  Obj -70501 Primal inf 296168 (1987)
Clp0006I 5897  Obj -70501 Primal inf 195890 (1988)
Clp0006I 6061  Obj -70501 Primal inf 333971 (1990)
Clp0006I 6234  Obj -70501 Primal inf 265862 (1989)
Clp0006I 6393  Obj -70501 Primal inf 352003 (1986)
Clp0006I 6552  Obj -70501 Primal inf 361013 (1987)
Clp0006I 6699  Obj -70501 Primal inf 245561 (1987)
Clp0006I 6850  Obj -70501 Primal inf 241871 (1987)
Clp0006I 7012  Obj -70501 Primal inf 365852 (1988)
Clp0006I 7148  Obj -70501 Primal inf 327960 (1987)
Clp0006I 7305  Obj -70501 Primal inf 329278 (1988)
Clp0006I 7471  Obj -70501 Primal inf 254443 (1986)
Clp0006I 7618  Obj -70501 Primal inf 278293 (1987)
Clp0006I 7768  Obj -70501 Primal inf 267937 (1989)
Clp0006I 7925  Obj -70501 Primal inf 272674 (1988)
Clp0006I 8071  Obj -70501 Primal inf 345569 (1986)

TIME LIMIT REACHED!
real 1m24,256s user 1m23,551s sys 0m0,595s
